min: c;

c = 3.005477626076 * u1_t7_h4 + 4.09316373943752 * u1_t7_h5 + 4.14162461139402 * u1_t5_h6 + 4.14162461139402 * u1_t7_h6 + 3.73405060989698 * u1_t5_h7 + 3.73405060989698 * u1_t7_h7 + 3.73405060989698 * u1_t9_h7 + 5.82650205473827 * u1_t5_h8 + 5.82650205473827 * u1_t7_h8 + 5.82650205473827 * u1_t9_h8 + 5.82650205473827 * u1_t10_h8 + 5.0384532544181 * u1_t5_h9 + 5.0384532544181 * u1_t7_h9 + 5.0384532544181 * u1_t9_h9 + 5.0384532544181 * u1_t10_h9 + 5.87340315654914 * u1_t5_h10 + 5.87340315654914 * u1_t7_h10 + 5.87340315654914 * u1_t9_h10 + 5.87340315654914 * u1_t10_h10 + 4.27928250909636 * u1_t5_h11 + 4.27928250909636 * u1_t9_h11 + 4.27928250909636 * u1_t10_h11 + 6.1667752484635 * u1_t4_h12 + 6.1667752484635 * u1_t5_h12 + 6.1667752484635 * u1_t8_h12 + 6.1667752484635 * u1_t9_h12 + 6.1667752484635 * u1_t10_h12 + 4.32707974294564 * u1_t4_h13 + 4.32707974294564 * u1_t8_h13 + 4.32707974294564 * u1_t9_h13 + 4.32707974294564 * u1_t10_h13 + 4.99974821869094 * u1_t4_h14 + 4.99974821869094 * u1_t8_h14 + 4.99974821869094 * u1_t9_h14 + 4.99974821869094 * u1_t10_h14 + 6.5887521382915 * u1_t4_h15 + 6.5887521382915 * u1_t8_h15 + 5.65531439961598 * u1_t4_h16 + 5.65531439961598 * u1_t8_h16 + 6.81046507922116 * u1_t4_h17 + 6.81046507922116 * u1_t8_h17 + 6.78229254415029 * u1_t2_h18 + 6.78229254415029 * u1_t4_h18 + 6.78229254415029 * u1_t6_h18 + 6.78229254415029 * u1_t8_h18 + 5.96641193547393 * u1_t2_h19 + 5.96641193547393 * u1_t3_h19 + 5.96641193547393 * u1_t4_h19 + 5.96641193547393 * u1_t6_h19 + 5.47445557358605 * u1_t1_h20 + 5.47445557358605 * u1_t2_h20 + 5.47445557358605 * u1_t3_h20 + 5.47445557358605 * u1_t4_h20 + 5.47445557358605 * u1_t6_h20 + 5.54465447505894 * u1_t1_h21 + 5.54465447505894 * u1_t2_h21 + 5.54465447505894 * u1_t3_h21 + 5.4102935432139 * u1_t1_h22 + 5.4102935432139 * u1_t2_h22 + 4.98423601409188 * u1_t1_h23 + 4.98423601409188 * u1_t2_h23;
0 <= u1_t1_h20 <= 1;
0 <= u1_t1_h21 <= 1;
0 <= u1_t1_h22 <= 1;
0 <= u1_t1_h23 <= 1;
u1_t1_h20 + u1_t1_h21 + u1_t1_h22 + u1_t1_h23 = 1;
0 <= u1_t2_h18 <= 1;
0 <= u1_t2_h19 <= 1;
0 <= u1_t2_h20 <= 1;
0 <= u1_t2_h21 <= 1;
0 <= u1_t2_h22 <= 1;
0 <= u1_t2_h23 <= 1;
u1_t2_h18 + u1_t2_h19 + u1_t2_h20 + u1_t2_h21 + u1_t2_h22 + u1_t2_h23 = 2;
0 <= u1_t3_h19 <= 1;
0 <= u1_t3_h20 <= 1;
0 <= u1_t3_h21 <= 1;
u1_t3_h19 + u1_t3_h20 + u1_t3_h21 = 1;
0 <= u1_t4_h12 <= 1;
0 <= u1_t4_h13 <= 1;
0 <= u1_t4_h14 <= 1;
0 <= u1_t4_h15 <= 1;
0 <= u1_t4_h16 <= 1;
0 <= u1_t4_h17 <= 1;
0 <= u1_t4_h18 <= 1;
0 <= u1_t4_h19 <= 1;
0 <= u1_t4_h20 <= 1;
u1_t4_h12 + u1_t4_h13 + u1_t4_h14 + u1_t4_h15 + u1_t4_h16 + u1_t4_h17 + u1_t4_h18 + u1_t4_h19 + u1_t4_h20 = 3;
0 <= u1_t5_h6 <= 1;
0 <= u1_t5_h7 <= 1;
0 <= u1_t5_h8 <= 1;
0 <= u1_t5_h9 <= 1;
0 <= u1_t5_h10 <= 1;
0 <= u1_t5_h11 <= 1;
0 <= u1_t5_h12 <= 1;
u1_t5_h6 + u1_t5_h7 + u1_t5_h8 + u1_t5_h9 + u1_t5_h10 + u1_t5_h11 + u1_t5_h12 = 3;
0 <= u1_t6_h18 <= 1;
0 <= u1_t6_h19 <= 1;
0 <= u1_t6_h20 <= 1;
u1_t6_h18 + u1_t6_h19 + u1_t6_h20 = 2;
0 <= u1_t7_h4 <= 1;
0 <= u1_t7_h5 <= 1;
0 <= u1_t7_h6 <= 1;
0 <= u1_t7_h7 <= 1;
0 <= u1_t7_h8 <= 1;
0 <= u1_t7_h9 <= 1;
0 <= u1_t7_h10 <= 1;
u1_t7_h4 + u1_t7_h5 + u1_t7_h6 + u1_t7_h7 + u1_t7_h8 + u1_t7_h9 + u1_t7_h10 = 2;
0 <= u1_t8_h12 <= 1;
0 <= u1_t8_h13 <= 1;
0 <= u1_t8_h14 <= 1;
0 <= u1_t8_h15 <= 1;
0 <= u1_t8_h16 <= 1;
0 <= u1_t8_h17 <= 1;
0 <= u1_t8_h18 <= 1;
u1_t8_h12 + u1_t8_h13 + u1_t8_h14 + u1_t8_h15 + u1_t8_h16 + u1_t8_h17 + u1_t8_h18 = 2;
0 <= u1_t9_h7 <= 1;
0 <= u1_t9_h8 <= 1;
0 <= u1_t9_h9 <= 1;
0 <= u1_t9_h10 <= 1;
0 <= u1_t9_h11 <= 1;
0 <= u1_t9_h12 <= 1;
0 <= u1_t9_h13 <= 1;
0 <= u1_t9_h14 <= 1;
u1_t9_h7 + u1_t9_h8 + u1_t9_h9 + u1_t9_h10 + u1_t9_h11 + u1_t9_h12 + u1_t9_h13 + u1_t9_h14 = 3;
0 <= u1_t10_h8 <= 1;
0 <= u1_t10_h9 <= 1;
0 <= u1_t10_h10 <= 1;
0 <= u1_t10_h11 <= 1;
0 <= u1_t10_h12 <= 1;
0 <= u1_t10_h13 <= 1;
0 <= u1_t10_h14 <= 1;
u1_t10_h8 + u1_t10_h9 + u1_t10_h10 + u1_t10_h11 + u1_t10_h12 + u1_t10_h13 + u1_t10_h14 = 3;
